p edge 30 42 15
v 2 5 6
v 1 29
v 1 12
v 2 15 16
v 3 14 21 25
v 2 7 17
v 3 18 24 28
v 1 30
v 3 9 13 27
v 3 8 10 22
v 1 4
v 2 19 23
v 2 20 26
v 2 2 3
v 2 1 11
e 1 12
e 1 20
e 1 28
e 2 9
e 2 18
e 2 28
e 3 5
e 3 10
e 3 12
e 4 11
e 4 17
e 4 20
e 5 7
e 5 12
e 5 20
e 5 27
e 6 22
e 7 12
e 7 20
e 7 29
e 8 16
e 9 17
e 9 18
e 11 12
e 12 18
e 12 25
e 13 20
e 13 25
e 15 16
e 15 18
e 15 22
e 15 30
e 16 18
e 17 24
e 17 29
e 18 20
e 18 22
e 19 27
e 19 29
e 19 30
e 21 27
e 24 30
